# Solution for model r10_t9_m9_6
# Finished Task: 9 / 9
# Makespan: 551.0, Total Distance: 664.0, Total Time: 0.0152
# R O S F
0 0 16 0.0 0.0
1 1 18 0.0 0.0
2 2 15 0.0 0.0
3 3 11 0.0 0.0
4 4 17 0.0 0.0
5 5 12 0.0 0.0
6 6 -1 0.0 0.0
7 7 -1 0.0 0.0
8 8 -1 0.0 0.0
9 9 -1 0.0 0.0
10 0 -1 497.0 527.0
11 3 -1 398.0 418.0
12 5 -1 497.0 529.0
13 1 -1 529.0 551.0
14 1 13 439.0 476.0
15 2 -1 439.0 470.0
16 0 10 415.0 439.0
17 4 -1 476.0 497.0
18 1 14 366.0 395.0
